
  22    4
  10   10   10   10

   0   0   0   0   0   6 2 3 4 6 9 21 
  10  10  10  10  10   4 20 17 15 5 
   1  10  10  10  10   6 20 18 17 14 8 7 
   5  10  10  10  10   9 19 18 17 16 15 14 13 12 11 
   9  10  10  10  10   5 19 18 14 10 7 
   9  10  10  10  10   3 17 10 8 
   9  10  10  10  10   4 16 13 12 11 
   1  10  10  10  10   2 15 12 
   2  10  10  10  10   2 14 13 
   3  10  10  10  10   1 11 
   2  10  10  10  10   1 22
   2  10  10  10  10   1 22
   6  10  10  10  10   1 22
   9  10  10  10  10   1 22
   3  10  10  10  10   1 22
   6  10  10  10  10   1 22
  10  10  10  10  10   1 22
   7  10  10  10  10   1 22
   5  10  10  10  10   1 22
  10  10  10  10  10   1 22
   2  10  10  10  10   1 22
   0   0   0   0   0   0 
